! beam (fix-free) with 53 elements


! nodes list :
! node nr. - boundary conditions codes: x,y,theta   x       y     
*NODES
1				    1 1 0	0.0     0.0 
2				    0 0 0	5.0     0.0
3				    0 0 0	10.0    0.0
4				    0 0 0	15.0    0.0
5				    0 0 0	20.0    0.0
6				    0 0 0	25.0    0.0 
7				    0 0 0	30.0    0.0
8				    0 0 0	35.0    0.0 
9				    0 0 0	40.0	0.0
10				    0 0 0	45.0	0.0
11  			    0 0 0	50.0	0.0
12				    0 0 0	55.0	0.0
13				    0 0 0	60.0	0.0
14				    0 0 0	65.0	0.0
15				    0 1 0	70.0	0.0
16				    0 0 0	5.0     4.0
17				    0 0 0	10.0	4.0
18				    0 0 0	15.0	4.0
19				    0 0 0	20.0	4.0
20				    0 0 0	25.0	4.0
21				    0 0 0	30.0	4.0
22				    0 0 0	35.0	4.0
23				    0 0 0	40.0	4.0
24				    0 0 0	45.0	4.0
25				    0 0 0	50.0	4.0
26				    0 0 0	55.0	4.0
27				    0 0 0	60.0    4.0
28				    0 0 0	65.0	4.0
29				    0 0 0	2.5	    2.0
30				    0 0 0	7.5	    2.0
31				    0 0 0	12.5    2.0
32				    0 0 0	17.5	2.0
33				    0 0 0   22.5	2.0
34				    0 0 0	27.5	2.0
35				    0 0 0	32.5	2.0
36				    0 0 0	37.5	2.0
37				    0 0 0	42.5	2.0
38				    0 0 0	47.5	2.0
39				    0 0 0	52.5	2.0
40				    0 0 0	57.5	2.0
41				    0 0 0	62.5	2.0
42				    0 0 0	67.5	2.0
*ENDNODES

! beams list :
! beam nr.   i-th node nr.  j-th node nr.      mass [kg/m]   EA [N]  EJ [Nm^2]	
*BEAMS
1		1		2		90.1	   2.38e9    9.93E7	
2		2		3		90.1	   2.38e9    9.93E7
3		3		4		90.1	   2.38e9    9.93E7
4		4		5		90.1	   2.38e9    9.93E7
5		5		6		90.1	   2.38e9    9.93E7
6		6		7		90.1	   2.38e9    9.93E7
7		7		8		90.1	   2.38e9    9.93E7
8		8		9		90.1	   2.38e9    9.93E7
9		9		10		90.1	   2.38e9    9.93E7
10		10		11		90.1	   2.38e9    9.93E7
11		11		12		90.1	   2.38e9    9.93E7
12		12		13		90.1	   2.38e9    9.93E7
13		13		14		90.1	   2.38e9    9.93E7
14		14		15		90.1	   2.38e9    9.93E7
15		1		29		87.8	   2.32e9    3.76E7
15		29		16		87.8	   2.32e9    3.76E7
16		16		17		90.1	   2.38e9    9.93E7
17		17		18		90.1	   2.38e9    9.93E7
18		18		19		90.1	   2.38e9    9.93E7
19		19		20		90.1	   2.38e9    9.93E7
20		20		21		90.1	   2.38e9    9.93E7
21		21		22		90.1	   2.38e9    9.93E7
22		22		23		90.1	   2.38e9    9.93E7
23		23		24		90.1	   2.38e9    9.93E7
24		24		25		90.1	   2.38e9    9.93E7
25		25		26		90.1	   2.38e9    9.93E7
26		26		27		90.1	   2.38e9    9.93E7
27		27		28		90.1	   2.38e9    9.93E7
28		28		42		87.8	   2.32e9    3.76E7
28		42		15		87.8	   2.32e9    3.76E7
29		2		16		59.9	   1.58e9    1.6E7
30		16		30		87.8	   2.32e9    3.76E7
30		30		3		87.8	   2.32e9    3.76E7
31		3		17		59.9	   1.58e9    1.6E7
32		3		31		87.8	   2.32e9    3.76E7
32		31		18		87.8	   2.32e9    3.76E7
33		4		18		59.9	   1.58e9    1.6E7
34		18		32		87.8	   2.32e9    3.76E7
34		32		5		87.8	   2.32e9    3.76E7
35		5		19		59.9	   1.58e9    1.6E7
36		5		33		87.8	   2.32e9    3.76E7
36		33		20		87.8	   2.32e9    3.76E7
37		20		6		59.9	   1.58e9    1.6E7
38		20		34		87.8	   2.32e9    3.76E7
38		34		7		87.8	   2.32e9    3.76E7
39		7		21		59.9	   1.58e9    1.6E7
40		7		35		87.8	   2.32e9    3.76E7
40		35		22		87.8	   2.32e9    3.76E7
41		22		8		59.9	   1.58e9    1.6E7
42		22		36		87.8	   2.32e9    3.76E7
42		36		9		87.8	   2.32e9    3.76E7
43		9		23		59.9	   1.58e9    1.6E7
44		9		37		87.8	   2.32e9    3.76E7
44		37		24		87.8	   2.32e9    3.76E7
45		24		10		59.9	   1.58e9    1.6E7
46		24		38		87.8	   2.32e9    3.76E7
46		38		11		87.8	   2.32e9    3.76E7
47		11		25		59.9	   1.58e9    1.6E7
48		11		39		87.8	   2.32e9    3.76E7
48		39		26		87.8	   2.32e9    3.76E7
49		26		12		59.9	   1.58e9    1.6E7
50		26		40		87.8	   2.32e9    3.76E7
50		40		13		87.8	   2.32e9    3.76E7
51		13		27		59.9	   1.58e9    1.6E7
52		13		41		87.8	   2.32e9    3.76E7
52		41		28		87.8	   2.32e9    3.76E7
53		28		14		59.9	   1.58e9    1.6E7
*ENDBEAMS

! alpha and beta values to define the damping matrix
*DAMPING
0.15 9.0e-5